benchmarks_vrp/CMT11/fixed_c_size/CMT11_4.vrp
NAME: CMT11_4
TYPE: CVRP
COMMENT: 1042.11 - Cluster Nr.4
DIMENSION: 8
CAPACITY: 200
EDGE_WEIGHT_TYPE: EUC_2D
NODE_COORD_TYPE: TWOD_COORDS
NODE_COORD_SECTION: 
2 99 89
5 90 88
7 10 45
6 95 80
1 94 86
4 93 84
8 93 89
3 93 82
DEPOT_SECTION: 
7
-1
DEMAND_SECTION: 
2 13
7 0
8 16
6 17
1 14
3 17
4 7
5 5
EOF
