benchmarks_vrp/CMT11/fixed_c_size/CMT11_4.tour
NAME: CMT11_4 solution
TYPE: TOUR
TOUR_SECTION:
7 5 8 2 1 4 3 6 -1
-1
EOF